64
53
42
2
43
54
13
34
99
3
1
89
62
96
95
65
11
77
10
15
74
57
87
21
39
68
40
59
27
67
19
61
51
98
17
6
79
31
38
4
70
93
30
5
50
52
35
12
22
66
63
46
76
18
97
26
82
44
37
24
0
60
72
9
7
20
86
84
91
55
16
71
41
47
69
58
33
80
73
94
14
36
29
49
78
32
85
8
48
83
81
45
28
90
75
23
88
56
25
92
